solution status: gap limit reached
objective value:                          45602.15798
y#1                                                 1 	(obj:5700)
y#3                                                 1 	(obj:5700)
y#5                                                 1 	(obj:5700)
y#11                                                1 	(obj:5700)
y#12                                                1 	(obj:5700)
y#26                                                1 	(obj:5700)
y#27                                                1 	(obj:5700)
y#31                                                1 	(obj:5700)
x#1#26                                              1 	(obj:0.01921)
x#2#1                                               1 	(obj:0.0578)
x#3#26                                              1 	(obj:0.02176)
x#4#5                                               1 	(obj:0.01309)
x#5#5                                               1 	(obj:0.01547)
x#6#11                                              1 	(obj:0.00884)
x#7#27                                              1 	(obj:0.02312)
x#8#11                                              1 	(obj:0.03179)
x#9#27                                              1 	(obj:0.02635)
x#10#27                                             1 	(obj:0.03757)
x#11#31                                             1 	(obj:0.02737)
x#12#31                                             1 	(obj:0.03094)
x#13#31                                             1 	(obj:0.05525)
x#14#3                                              1 	(obj:0.03264)
x#15#26                                             1 	(obj:0.01632)
x#16#12                                             1 	(obj:0.01887)
x#17#31                                             1 	(obj:0.00816)
x#18#5                                              1 	(obj:0.01853)
x#19#12                                             1 	(obj:0.02108)
x#20#12                                             1 	(obj:0.02601)
x#21#11                                             1 	(obj:0.01717)
x#22#1                                              1 	(obj:0.02312)
x#23#11                                             1 	(obj:0.02244)
x#24#11                                             1 	(obj:0.03842)
x#25#3                                              1 	(obj:0.01105)
x#26#12                                             1 	(obj:0.01241)
x#27#3                                              1 	(obj:0.02193)
x#28#27                                             1 	(obj:0.01581)
x#29#26                                             1 	(obj:0.02703)
x#30#5                                              1 	(obj:0.01683)
x#31#12                                             1 	(obj:0.01377)
x#32#26                                             1 	(obj:0.01887)
x#33#31                                             1 	(obj:0.0289)
x#34#1                                              1 	(obj:0.03111)
x#35#1                                              1 	(obj:0.00374)
x#36#26                                             1 	(obj:0.00986)
x#37#3                                              1 	(obj:0.04318)
x#38#26                                             1 	(obj:0.02618)
x#39#3                                              1 	(obj:0.01564)
x#40#1                                              1 	(obj:0.01343)
x#41#1                                              1 	(obj:0.03842)
x#42#11                                             1 	(obj:0.01309)
x#43#27                                             1 	(obj:0.02397)
x#44#3                                              1 	(obj:0.03145)
x#45#26                                             1 	(obj:0.02091)
x#46#31                                             1 	(obj:0.01853)
x#47#5                                              1 	(obj:0.00748)
x#48#3                                              1 	(obj:0.04267)
x#49#1                                              1 	(obj:0.01785)
x#50#12                                             1 	(obj:0.03553)
x#51#27                                             1 	(obj:0.0306)
x#52#11                                             1 	(obj:0.02839)
x#53#26                                             1 	(obj:0.04046)
x#54#3                                              1 	(obj:0.0323)
x#55#26                                             1 	(obj:0.02567)
x#56#1                                              1 	(obj:0.06392)
x#57#27                                             1 	(obj:0.01207)
x#58#31                                             1 	(obj:0.01122)
x#59#5                                              1 	(obj:0.01207)
x#60#3                                              1 	(obj:0.02652)
x#61#31                                             1 	(obj:0.01547)
x#62#27                                             1 	(obj:0.04284)
x#63#26                                             1 	(obj:0.0153)
x#64#5                                              1 	(obj:0.02941)
x#65#11                                             1 	(obj:0.00374)
x#66#11                                             1 	(obj:0.01445)
x#67#11                                             1 	(obj:0.02397)
x#68#12                                             1 	(obj:0.03332)
x#69#12                                             1 	(obj:0.01972)
x#70#11                                             1 	(obj:0.01377)
x#71#11                                             1 	(obj:0.03944)
x#72#1                                              1 	(obj:0.01326)
x#73#12                                             1 	(obj:0.02686)
x#74#3                                              1 	(obj:0.0238)
x#75#5                                              1 	(obj:0.03757)
x#76#31                                             1 	(obj:0.02108)
x#77#1                                              1 	(obj:0.02397)
x#78#12                                             1 	(obj:0.02244)
x#79#5                                              1 	(obj:0.01241)
x#80#5                                              1 	(obj:0.034)
x#81#1                                              1 	(obj:0.03876)
x#82#12                                             1 	(obj:0.02346)
x#83#27                                             1 	(obj:0.00425)
x#84#3                                              1 	(obj:0.05423)
x#85#31                                             1 	(obj:0.02125)
x#86#31                                             1 	(obj:0.00459)
x#87#27                                             1 	(obj:0.02686)
x#88#27                                             1 	(obj:0.03111)
x#89#26                                             1 	(obj:0.00595)
x#90#3                                              1 	(obj:0.02652)
